
===== New CPLEX run =====
Instance: /home/yorig/tuner/mpils-tests/instances/miplib/easy/lotsize.mps
Config: /scratch/yorig/mpils-results-grid-seconds-5-no-mip-start/easy/16proc/seed-3/4_lotsize_seed-3_20260502_223218/expansion/config_param_CPXPARAM_MIP_Strategy_Dive_1_iter_1.prm
========================

Selected objective sense:  MINIMIZE
Selected objective  name:  R1921
Selected RHS        name:  B
Selected bound      name:  BOUND
Version identifier: 22.1.2.0 | 2024-11-26 | 0edbb82fd
CPXPARAM_Threads                                 8
CPXPARAM_Parallel                                1
CPXPARAM_MIP_Cuts_Cliques                        2
CPXPARAM_MIP_Cuts_FlowCovers                     2
CPXPARAM_MIP_Cuts_Implied                        1
CPXPARAM_MIP_Limits_GomoryCand                   800
CPXPARAM_MIP_Cuts_Gomory                         -1
CPXPARAM_MIP_Cuts_PathCut                        1
CPXPARAM_MIP_Cuts_MIRCut                         2
CPXPARAM_MIP_Cuts_Disjunctive                    2
CPXPARAM_Emphasis_MIP                            1
CPXPARAM_MIP_Strategy_Dive                       1
CPXPARAM_TimeLimit                               5
Tried aggregator 1 time.
MIP Presolve eliminated 595 rows and 0 columns.
MIP Presolve added 1190 rows and 0 columns.
MIP Presolve modified 10 coefficients.
Reduced MIP has 2515 rows, 2985 columns, and 7755 nonzeros.
Reduced MIP has 1195 binaries, 0 generals, 0 SOSs, and 0 indicators.
Presolve time = 0.00 sec. (4.53 ticks)
Probing fixed 0 vars, tightened 5487 bounds.
Probing time = 0.01 sec. (18.38 ticks)
Tried aggregator 2 times.
Detecting symmetries...
MIP Presolve modified 1206 coefficients.
Aggregator did 10 substitutions.
Reduced MIP has 2505 rows, 2975 columns, and 7735 nonzeros.
Reduced MIP has 1195 binaries, 0 generals, 0 SOSs, and 0 indicators.
Presolve time = 0.00 sec. (6.66 ticks)
Probing fixed 0 vars, tightened 2401 bounds.
Probing time = 0.00 sec. (6.41 ticks)
Clique table members: 190.
MIP emphasis: integer feasibility.
MIP search method: dynamic search.
Parallel mode: deterministic, using up to 8 threads.
Root relaxation solution time = 0.01 sec. (9.71 ticks)

        Nodes                                         Cuts/
   Node  Left     Objective  IInf  Best Integer    Best Bound    ItCnt     Gap

      0     0   348385.3466   472                 348385.3466      882         
      0     0   583577.4049   435                   Cuts: 726     1819         
      0     0   818290.4051   692                   Cuts: 726     2653         
*     0+    0                       1.01740e+07   818290.4051            91.96%
*     0+    0                      7973370.0000   818290.4051            89.74%
      0     0   947113.9594   686  7973370.0000     Cuts: 726     3332   88.12%
Detecting symmetries...
      0     2   947113.9594   686  7973370.0000   949700.7247     3332   88.09%
Elapsed time = 0.44 sec. (613.28 ticks, tree = 0.02 MB, solutions = 2)
    890   717  1091118.1265   500  7973370.0000   949700.7247     8183   88.09%

Performing restart 1

Repeating presolve.
Tried aggregator 1 time.
MIP Presolve modified 1250 coefficients.
Reduced MIP has 2505 rows, 2975 columns, and 7735 nonzeros.
Reduced MIP has 1195 binaries, 0 generals, 0 SOSs, and 0 indicators.
Presolve time = 0.00 sec. (3.86 ticks)
Tried aggregator 1 time.
MIP Presolve modified 1017 coefficients.
Reduced MIP has 2505 rows, 2975 columns, and 7735 nonzeros.
Reduced MIP has 1195 binaries, 0 generals, 0 SOSs, and 0 indicators.
Presolve time = 0.00 sec. (5.12 ticks)
Represolve time = 0.02 sec. (18.76 ticks)
   1710     0  1115334.0646   734  7973370.0000     Cuts: 726    25329   86.01%
   1710     0  1190720.5361   703  7973370.0000     Cuts: 726    26096   85.07%
   1710     0  1251650.5586   699  7973370.0000     Cuts: 726    26815   84.30%
   1710     2  1251650.5586   699  7973370.0000  1251650.5586    26815   84.30%
   1730    22  1270157.7884   648  7973370.0000  1252161.8547    27464   84.30%
   1776    68  1296655.3935   537  7973370.0000  1252161.8547    28130   84.30%
   1823     7  1260119.6039   669  7973370.0000  1252161.8547    27071   84.30%
   1848   138  1458023.9546   532  7973370.0000  1252711.0834    32138   84.29%
   1895   181  1343165.2515   721  7973370.0000  1252723.4878    40344   84.29%
   1990   212  1354512.3401   655  7973370.0000  1252723.4878    47625   84.29%
   2171   282  1362980.8750   700  7973370.0000  1252723.4878    51752   84.29%
*  2662+  597                      1873829.0000  1252723.4878            33.15%
*  3377+ 1099                      1772346.0000  1252723.4878            29.32%
*  3381+ 1099                      1747034.0000  1252723.4878            28.29%
*  3420+ 1196                      1719126.0000  1252723.4878            27.13%
*  3425+ 1196                      1712229.0000  1252723.4878            26.84%
   3598  1465  1607976.9545   198  1712229.0000  1252723.4878    89003   26.84%
Elapsed time = 4.64 sec. (5558.03 ticks, tree = 2.22 MB, solutions = 17)
*  3631+ 1556                      1658061.0000  1252723.4878            24.45%
*  4013+ 1859                      1611575.0000  1254344.0997            22.17%

Clique cuts applied:  0
Cover cuts applied:  19
Implied bound cuts applied:  13
Flow cuts applied:  834
Mixed integer rounding cuts applied:  1085
Flow path cuts applied:  56
Multi commodity flow cuts applied:  27
Lift and project cuts applied:  18
Disjunctive cuts applied:  0
Cone linearizations applied:  0

Root node processing (before b&c):
  Real time             =    0.44 sec. (611.23 ticks)
Parallel b&c, 8 threads:
  Real time             =    4.57 sec. (5437.17 ticks)
  Sync time (average)   =    0.30 sec.
  Wait time (average)   =    0.01 sec.
                          ------------
Total (root+branch&cut) =    5.01 sec. (6048.41 ticks)
Gap: 22.17%
Upper bound: 1.61157e+06
Lower bound: 1.25434e+06
End of CPLEX run. Time: 5.00689 seconds
